Maximize
  obj: -9 x0 -10 x1 -8 x2 -8 x3 +1 x4 -10 x5 +10 x6 +10 x7 +6 x8 -7 x9 +2 x10 +2 x11 +8 x12 +10 x13 -10 x14 +1 x15 +1 x16 -6 x17 +4 x18 -9 x19 +142 x20 -173 x21 +131 x22 -143 x23 +9 x24 -175 x25 -181 x26 -127 x27 +129 x28 +62 x29 +7 x30 +60 x31 +101 x32 +27 x33 -142 x34 +180 x35 -180 x36 +114 x37 +185 x38 -197 x39 
Subject to
  c1: +17 x0 +0 x1 +19 x2 +10 x3 +12 x4 +0 x5 +0 x6 +0 x7 +0 x8 +5 x9 +9 x10 +0 x11 +0 x12 +0 x13 +0 x14 +20 x15 +0 x16 +16 x17 +10 x18 +0 x19 +11 x20 <= 86
  c2: +0 x0 +5 x1 +0 x2 +14 x3 +0 x4 +5 x5 +0 x6 +16 x7 +0 x8 +0 x9 +0 x10 +1 x11 +19 x12 +0 x13 +7 x14 +11 x15 +18 x16 +0 x17 +0 x18 +3 x19 +5 x21 <= 73
  c3: +0 x0 +15 x1 +0 x2 +0 x3 +14 x4 +18 x5 +0 x6 +4 x7 +16 x8 +17 x9 +0 x10 +4 x11 +0 x12 +0 x13 +11 x14 +0 x15 +7 x16 +0 x17 +9 x18 +0 x19 +14 x22 <= 55
  c4: +19 x0 +4 x1 +15 x2 +0 x3 +18 x4 +0 x5 +8 x6 +0 x7 +0 x8 +0 x9 +0 x10 +0 x11 +11 x12 +2 x13 +0 x14 +1 x15 +10 x16 +0 x17 +16 x18 +13 x19 +16 x23 <= 95
  c5: +0 x0 +0 x1 +17 x2 -1 x3 +2 x4 +15 x5 +0 x6 +8 x7 +0 x8 +0 x9 +0 x10 +0 x11 +0 x12 +0 x13 +18 x14 +11 x15 +0 x16 +0 x17 +17 x18 +0 x19 +7 x24 <= 88
  c6: +11 x0 +0 x1 +0 x2 +8 x3 +0 x4 +0 x5 +0 x6 +7 x7 +18 x8 +16 x9 +5 x10 +10 x11 +14 x12 +0 x13 +5 x14 +0 x15 +0 x16 +11 x17 +16 x18 +0 x19 +16 x25 <= 76
  c7: +5 x0 +4 x1 +0 x2 +0 x3 +2 x4 +0 x5 -1 x6 +13 x7 +0 x8 +10 x9 +14 x10 +8 x11 +2 x12 +18 x13 +13 x14 +0 x15 +15 x16 +0 x17 +0 x18 +0 x19 +2 x26 <= 67
  c8: +0 x0 +18 x1 +0 x2 +0 x3 +15 x4 +17 x5 +0 x6 +0 x7 +0 x8 +0 x9 +0 x10 +12 x11 +0 x12 +11 x13 +17 x14 +17 x15 +0 x16 +0 x17 +9 x18 +6 x19 +2 x27 <= 60
  c9: +0 x0 +0 x1 +0 x2 +5 x3 +0 x4 +14 x5 +16 x6 +0 x7 +0 x8 +10 x9 +0 x10 +10 x11 +0 x12 +0 x13 +0 x14 +0 x15 +0 x16 +4 x17 -1 x18 +3 x19 +8 x28 <= 55
  c10: +0 x0 +0 x1 +0 x2 +0 x3 +12 x4 -1 x5 +0 x6 +0 x7 +0 x8 +15 x9 +4 x10 +0 x11 +0 x12 +0 x13 +0 x14 +20 x15 +0 x16 +0 x17 +20 x18 +14 x19 +8 x29 <= 81
  c11: +0 x0 +10 x1 +13 x2 +0 x3 +0 x4 +20 x5 +0 x6 +0 x7 +0 x8 +0 x9 +0 x10 +0 x11 +0 x12 +0 x13 +0 x14 +0 x15 +0 x16 +0 x17 +13 x18 +11 x19 +10 x30 <= 75
  c12: +0 x0 +17 x1 +0 x2 +19 x3 +0 x4 +0 x5 +0 x6 +6 x7 +3 x8 +15 x9 +6 x10 +0 x11 +0 x12 +0 x13 +13 x14 +0 x15 -1 x16 +15 x17 +11 x18 +0 x19 +18 x31 <= 83
  c13: +1 x0 +20 x1 +4 x2 +15 x3 +0 x4 +0 x5 +0 x6 +19 x7 +9 x8 +13 x9 +0 x10 +0 x11 +12 x12 +0 x13 +0 x14 +2 x15 +0 x16 +0 x17 +0 x18 +17 x19 +11 x32 <= 83
  c14: +0 x0 +1 x1 +0 x2 +18 x3 +0 x4 +1 x5 +0 x6 +12 x7 +0 x8 +11 x9 +5 x10 +0 x11 +0 x12 +0 x13 +20 x14 +11 x15 +0 x16 +4 x17 +0 x18 +0 x19 +20 x33 <= 59
  c15: +0 x0 +16 x1 +11 x2 +18 x3 +0 x4 +10 x5 +0 x6 +0 x7 +1 x8 +4 x9 -1 x10 +5 x11 +3 x12 +0 x13 +0 x14 +0 x15 +0 x16 +0 x17 +0 x18 +0 x19 +18 x34 <= 73
  c16: +0 x0 +0 x1 +0 x2 +0 x3 +17 x4 +0 x5 +10 x6 +1 x7 +0 x8 +0 x9 +0 x10 +0 x11 +7 x12 +0 x13 +12 x14 +0 x15 +0 x16 +0 x17 +0 x18 +0 x19 +12 x35 <= 92
  c17: +14 x0 +1 x1 +0 x2 +5 x3 +0 x4 +0 x5 +14 x6 +3 x7 +18 x8 -1 x9 +0 x10 +0 x11 +1 x12 +0 x13 +5 x14 +0 x15 +18 x16 +12 x17 +0 x18 +0 x19 +2 x36 <= 80
  c18: +0 x0 +14 x1 +0 x2 +0 x3 +0 x4 +0 x5 +0 x6 +0 x7 +0 x8 +11 x9 +0 x10 +0 x11 -1 x12 +0 x13 +0 x14 +3 x15 +0 x16 +0 x17 +12 x18 +17 x19 +12 x37 <= 57
  c19: +6 x0 +0 x1 +0 x2 +0 x3 +18 x4 +0 x5 +0 x6 +9 x7 +0 x8 +19 x9 +0 x10 +18 x11 +0 x12 +13 x13 +0 x14 +6 x15 +11 x16 +0 x17 +12 x18 +0 x19 +8 x38 <= 68
  c20: +0 x0 +9 x1 +5 x2 +16 x3 +15 x4 +0 x5 +0 x6 +0 x7 +0 x8 +7 x9 +0 x10 +8 x11 +0 x12 +15 x13 +0 x14 +8 x15 +0 x16 +0 x17 +16 x18 +0 x19 +3 x39 <= 54
  c21: +11 x0 +0 x1 +0 x2 +16 x3 +0 x4 +6 x5 +9 x6 +0 x7 +0 x8 +19 x9 +0 x10 +0 x11 +0 x12 +0 x13 +0 x14 +5 x15 +5 x16 +0 x17 +20 x18 +0 x19 <= 92
  c22: +0 x0 +3 x1 +0 x2 +0 x3 +0 x4 +0 x5 +0 x6 +13 x7 +10 x8 +0 x9 +0 x10 +0 x11 +0 x12 -1 x13 +7 x14 +16 x15 +4 x16 +0 x17 +20 x18 +19 x19 <= 87
  c23: +0 x0 +0 x1 +18 x2 -1 x3 +8 x4 +0 x5 +0 x6 +0 x7 +0 x8 +17 x9 +0 x10 +0 x11 +1 x12 +18 x13 +18 x14 +11 x15 +2 x16 +0 x17 +0 x18 +0 x19 <= 61
  c24: +0 x0 +0 x1 +0 x2 +0 x3 +0 x4 +0 x5 +18 x6 +3 x7 +0 x8 +0 x9 +12 x10 +18 x11 +0 x12 +0 x13 +15 x14 +7 x15 +11 x16 +0 x17 +0 x18 +0 x19 <= 57
  c25: +18 x0 +0 x1 +0 x2 +14 x3 +16 x4 +0 x5 +19 x6 +0 x7 +0 x8 +0 x9 +2 x10 +17 x11 +9 x12 +0 x13 +3 x14 +13 x15 +8 x16 +15 x17 +0 x18 +0 x19 <= 92
  c26: +11 x0 -1 x1 +1 x2 +0 x3 +0 x4 +10 x5 +0 x6 -1 x7 +0 x8 +0 x9 +0 x10 +4 x11 +0 x12 +0 x13 +9 x14 +0 x15 +3 x16 +0 x17 +0 x18 +0 x19 <= 68
  c27: +0 x0 +6 x1 -1 x2 +0 x3 +10 x4 +0 x5 +19 x6 +7 x7 +6 x8 +0 x9 +3 x10 +0 x11 +0 x12 +7 x13 +4 x14 +10 x15 +15 x16 +8 x17 +3 x18 +0 x19 <= 95
  c28: +0 x0 +0 x1 +14 x2 +0 x3 +13 x4 +10 x5 +12 x6 +11 x7 +20 x8 +11 x9 +4 x10 +0 x11 +0 x12 +0 x13 +5 x14 +12 x15 +0 x16 +0 x17 +0 x18 +0 x19 <= 98
  c29: +0 x0 +0 x1 +0 x2 +0 x3 +0 x4 +6 x5 +10 x6 +0 x7 +19 x8 +0 x9 +14 x10 +0 x11 +0 x12 -1 x13 +0 x14 +19 x15 +0 x16 +0 x17 +0 x18 +0 x19 <= 100
  c30: +0 x0 +20 x1 +0 x2 +1 x3 +2 x4 +12 x5 +0 x6 +10 x7 +16 x8 +8 x9 +0 x10 +5 x11 +0 x12 +0 x13 +0 x14 +0 x15 +0 x16 +0 x17 +0 x18 +20 x19 <= 84
  c31: +0 x0 +0 x1 +0 x2 +1 x3 +13 x4 +0 x5 +0 x6 +0 x7 +0 x8 +0 x9 +0 x10 +0 x11 +13 x12 +8 x13 +9 x14 +12 x15 +19 x16 +0 x17 +12 x18 +0 x19 <= 52
  c32: +6 x0 +0 x1 +18 x2 +13 x3 +0 x4 +3 x5 +0 x6 +16 x7 +2 x8 +0 x9 +0 x10 +0 x11 +8 x12 +0 x13 +0 x14 +0 x15 +5 x16 +11 x17 +0 x18 +0 x19 <= 59
  c33: +6 x0 +3 x1 +1 x2 +0 x3 +0 x4 +6 x5 +3 x6 +0 x7 -1 x8 +10 x9 +0 x10 +0 x11 +7 x12 +0 x13 +13 x14 +0 x15 +0 x16 +0 x17 +18 x18 +13 x19 <= 56
  c34: +0 x0 +0 x1 +0 x2 +0 x3 +0 x4 +0 x5 +19 x6 +13 x7 +0 x8 +10 x9 +4 x10 +0 x11 +0 x12 +0 x13 +17 x14 +2 x15 +1 x16 +0 x17 +0 x18 -1 x19 <= 57
  c35: +0 x0 +0 x1 +0 x2 +1 x3 -1 x4 +10 x5 +7 x6 +5 x7 +0 x8 +11 x9 +17 x10 +0 x11 +0 x12 +0 x13 +0 x14 +1 x15 +13 x16 +1 x17 +8 x18 +0 x19 <= 53
  c36: +0 x0 +0 x1 +0 x2 +0 x3 +0 x4 +0 x5 +12 x6 +0 x7 +0 x8 +0 x9 +0 x10 -1 x11 +0 x12 +0 x13 +0 x14 +0 x15 +0 x16 +0 x17 +18 x18 +7 x19 <= 94
  c37: +0 x0 +18 x1 +5 x2 +16 x3 +6 x4 +0 x5 +0 x6 +0 x7 +0 x8 +17 x9 +17 x10 +0 x11 +0 x12 +9 x13 +3 x14 +14 x15 +0 x16 +0 x17 +0 x18 +8 x19 <= 57
  c38: +0 x0 +0 x1 +1 x2 +16 x3 +19 x4 +0 x5 +0 x6 +6 x7 +3 x8 +14 x9 +3 x10 +4 x11 +12 x12 +0 x13 +0 x14 +0 x15 +0 x16 +0 x17 +0 x18 +19 x19 <= 96
  c39: +8 x0 +6 x1 +0 x2 +6 x3 +0 x4 +3 x5 +0 x6 +0 x7 +0 x8 +0 x9 +0 x10 +0 x11 +7 x12 +19 x13 +11 x14 +20 x15 +0 x16 +3 x17 +0 x18 +0 x19 <= 53
  c40: + x20 + x21 + x22 + x23 + x24 + x25 + x26 + x27 + x28 + x29 + x30 + x31 + x32 + x33 + x34 + x35 + x36 + x37 + x38 + x39 <= 6.666667
Binary
 x20
 x21
 x22
 x23
 x24
 x25
 x26
 x27
 x28
 x29
 x30
 x31
 x32
 x33
 x34
 x35
 x36
 x37
 x38
 x39
End
